NAME          
ROWS
 N  OBJ
 L  c1
 L  c2
COLUMNS
    MARKER    'MARKER'                 'INTORG'
    x[1]      c1        432
    x[1]      c2        205
    x[1]      OBJ       -448
    x[2]      c1        147
    x[2]      c2        675
    x[2]      OBJ       -208
    x[3]      c1        471
    x[3]      c2        676
    x[3]      OBJ       -592
    x[4]      c1        560
    x[4]      c2        587
    x[4]      OBJ       -681
    x[5]      c1        852
    x[5]      c2        375
    x[5]      OBJ       -882
    x[6]      c1        829
    x[6]      c2        755
    x[6]      OBJ       -113
    x[7]      c1        842
    x[7]      c2        39
    x[7]      OBJ       -753
    x[8]      c1        392
    x[8]      c2        650
    x[8]      OBJ       -322
    x[9]      c1        183
    x[9]      c2        943
    x[9]      OBJ       -697
    x[10]     c1        994
    x[10]     c2        594
    x[10]     OBJ       -227
    x[11]     c1        299
    x[11]     c2        888
    x[11]     OBJ       -431
    x[12]     c1        49
    x[12]     c2        223
    x[12]     OBJ       -380
    x[13]     c1        316
    x[13]     c2        559
    x[13]     OBJ       -383
    x[14]     c1        512
    x[14]     c2        886
    x[14]     OBJ       -851
    x[15]     c1        909
    x[15]     c2        554
    x[15]     OBJ       -173
RHS
    rhs       c1        3894
    rhs       c2        4304
RANGES
BOUNDS
 BV bounds    x[1]
 BV bounds    x[2]
 BV bounds    x[3]
 BV bounds    x[4]
 BV bounds    x[5]
 BV bounds    x[6]
 BV bounds    x[7]
 BV bounds    x[8]
 BV bounds    x[9]
 BV bounds    x[10]
 BV bounds    x[11]
 BV bounds    x[12]
 BV bounds    x[13]
 BV bounds    x[14]
 BV bounds    x[15]
ENDATA
